NumberOfAtoms         400
NumberOfSpecies       1
%block ChemicalSpeciesLabel
  1  6   C
%endblock ChemicalSpeciesLabel

LatticeConstant       1 Ang
%block LatticeVectors
   20.0000000000         0.0000000000         0.0000000000
    0.0000000000        20.0000000000         0.0000000000
    0.0000000000         0.0000000000        42.6000022890
%endblock LatticeVectors

ZM.UnitsLength Ang
ZM.UnitsAngle deg

AtomicCoordinatesFormat   Ang
%block Zmatrix
cartesian
1   13.0815510000	12.4950180000	    1.2756040000	0	0	0
1   13.0815510000	12.4950180000	    2.6951060000	0	0	0
1   12.1600000000	13.3253430000	    3.4057620000	0	0	0
1   12.1600000000	13.3253430000	    0.5653310000	0	0	0
1   11.0264910000	13.8298940000	    1.2756040000	0	0	0
1   11.0264910000	13.8298940000	    2.6951060000	0	0	0
1    9.7925170000	13.9597250000	    3.4057620000	0	0	0
1    9.7925170000	13.9597250000	    0.5653310000	0	0	0
1    8.5790550000	13.7017400000	    1.2756040000	0	0	0
1    8.5790550000	13.7017400000	    2.6951060000	0	0	0
1    7.5049010000	13.0815290000	    3.4057620000	0	0	0
1    7.5049010000	13.0815290000	    0.5653310000	0	0	0
1    6.6746210000	12.1600020000	    1.2756040000	0	0	0
1    6.6746210000	12.1600020000	    2.6951060000	0	0	0
1    6.1701370000	11.0266030000	    3.4057620000	0	0	0
1    6.1701370000	11.0266030000	    0.5653310000	0	0	0
1    6.0403110000	 9.7925040000	    1.2756040000	0	0	0
1    6.0403110000	 9.7925040000	    2.6951060000	0	0	0
1    6.2983200000	 8.5789940000	    3.4057620000	0	0	0
1    6.2983200000	 8.5789940000	    0.5653310000	0	0	0
1    6.9184490000	 7.5049820000	    1.2756040000	0	0	0
1    6.9184490000	 7.5049820000	    2.6951060000	0	0	0
1    7.8400000000	 6.6746570000	    3.4057620000	0	0	0
1    7.8400000000	 6.6746570000	    0.5653310000	0	0	0
1    8.9735090000	 6.1701060000	    1.2756040000	0	0	0
1    8.9735090000	 6.1701060000	    2.6951060000	0	0	0
1   10.2074830000	 6.0402750000	    3.4057620000	0	0	0
1   10.2074830000	 6.0402750000	    0.5653310000	0	0	0
1   11.4209450000	 6.2982600000	    1.2756040000	0	0	0
1   11.4209450000	 6.2982600000	    2.6951060000	0	0	0
1   12.4950990000	 6.9184710000	    3.4057620000	0	0	0
1   12.4950990000	 6.9184710000	    0.5653310000	0	0	0
1   13.3253790000	 7.8399980000	    1.2756040000	0	0	0
1   13.3253790000	 7.8399980000	    2.6951060000	0	0	0
1   13.8298630000	 8.9733970000	    3.4057620000	0	0	0
1   13.8298630000	 8.9733970000	    0.5653310000	0	0	0
1   13.9596890000	10.2074960000	    1.2756040000	0	0	0
1   13.9596890000	10.2074960000	    2.6951060000	0	0	0
1   13.7016800000	11.4210060000	    3.4057620000	0	0	0
1   13.7016800000	11.4210060000	    0.5653310000	0	0	0
1   13.0815510000	12.4950180000	    5.5356042289	0	0	0
1   13.0815510000	12.4950180000	    6.9551062289	0	0	0
1   12.1600000000	13.3253430000	    7.6657622289	0	0	0
1   12.1600000000	13.3253430000	    4.8253312289	0	0	0
1   11.0264910000	13.8298940000	    5.5356042289	0	0	0
1   11.0264910000	13.8298940000	    6.9551062289	0	0	0
1    9.7925170000	13.9597250000	    7.6657622289	0	0	0
1    9.7925170000	13.9597250000	    4.8253312289	0	0	0
1    8.5790550000	13.7017400000	    5.5356042289	0	0	0
1    8.5790550000	13.7017400000	    6.9551062289	0	0	0
1    7.5049010000	13.0815290000	    7.6657622289	0	0	0
1    7.5049010000	13.0815290000	    4.8253312289	0	0	0
1    6.6746210000	12.1600020000	    5.5356042289	0	0	0
1    6.6746210000	12.1600020000	    6.9551062289	0	0	0
1    6.1701370000	11.0266030000	    7.6657622289	0	0	0
1    6.1701370000	11.0266030000	    4.8253312289	0	0	0
1    6.0403110000	 9.7925040000	    5.5356042289	0	0	0
1    6.0403110000	 9.7925040000	    6.9551062289	0	0	0
1    6.2983200000	 8.5789940000	    7.6657622289	0	0	0
1    6.2983200000	 8.5789940000	    4.8253312289	0	0	0
1    6.9184490000	 7.5049820000	    5.5356042289	0	0	0
1    6.9184490000	 7.5049820000	    6.9551062289	0	0	0
1    7.8400000000	 6.6746570000	    7.6657622289	0	0	0
1    7.8400000000	 6.6746570000	    4.8253312289	0	0	0
1    8.9735090000	 6.1701060000	    5.5356042289	0	0	0
1    8.9735090000	 6.1701060000	    6.9551062289	0	0	0
1   10.2074830000	 6.0402750000	    7.6657622289	0	0	0
1   10.2074830000	 6.0402750000	    4.8253312289	0	0	0
1   11.4209450000	 6.2982600000	    5.5356042289	0	0	0
1   11.4209450000	 6.2982600000	    6.9551062289	0	0	0
1   12.4950990000	 6.9184710000	    7.6657622289	0	0	0
1   12.4950990000	 6.9184710000	    4.8253312289	0	0	0
1   13.3253790000	 7.8399980000	    5.5356042289	0	0	0
1   13.3253790000	 7.8399980000	    6.9551062289	0	0	0
1   13.8298630000	 8.9733970000	    7.6657622289	0	0	0
1   13.8298630000	 8.9733970000	    4.8253312289	0	0	0
1   13.9596890000	10.2074960000	    5.5356042289	0	0	0
1   13.9596890000	10.2074960000	    6.9551062289	0	0	0
1   13.7016800000	11.4210060000	    7.6657622289	0	0	0
1   13.7016800000	11.4210060000	    4.8253312289	0	0	0
1   13.0815510000	12.4950180000	    9.7956044578	0	0	0
1   13.0815510000	12.4950180000	   11.2151064578	0	0	0
1   12.1600000000	13.3253430000	   11.9257624578	0	0	0
1   12.1600000000	13.3253430000	    9.0853314578	0	0	0
1   11.0264910000	13.8298940000	    9.7956044578	0	0	0
1   11.0264910000	13.8298940000	   11.2151064578	0	0	0
1    9.7925170000	13.9597250000	   11.9257624578	0	0	0
1    9.7925170000	13.9597250000	    9.0853314578	0	0	0
1    8.5790550000	13.7017400000	    9.7956044578	0	0	0
1    8.5790550000	13.7017400000	   11.2151064578	0	0	0
1    7.5049010000	13.0815290000	   11.9257624578	0	0	0
1    7.5049010000	13.0815290000	    9.0853314578	0	0	0
1    6.6746210000	12.1600020000	    9.7956044578	0	0	0
1    6.6746210000	12.1600020000	   11.2151064578	0	0	0
1    6.1701370000	11.0266030000	   11.9257624578	0	0	0
1    6.1701370000	11.0266030000	    9.0853314578	0	0	0
1    6.0403110000	 9.7925040000	    9.7956044578	0	0	0
1    6.0403110000	 9.7925040000	   11.2151064578	0	0	0
1    6.2983200000	 8.5789940000	   11.9257624578	0	0	0
1    6.2983200000	 8.5789940000	    9.0853314578	0	0	0
1    6.9184490000	 7.5049820000	    9.7956044578	0	0	0
1    6.9184490000	 7.5049820000	   11.2151064578	0	0	0
1    7.8400000000	 6.6746570000	   11.9257624578	0	0	0
1    7.8400000000	 6.6746570000	    9.0853314578	0	0	0
1    8.9735090000	 6.1701060000	    9.7956044578	0	0	0
1    8.9735090000	 6.1701060000	   11.2151064578	0	0	0
1   10.2074830000	 6.0402750000	   11.9257624578	0	0	0
1   10.2074830000	 6.0402750000	    9.0853314578	0	0	0
1   11.4209450000	 6.2982600000	    9.7956044578	0	0	0
1   11.4209450000	 6.2982600000	   11.2151064578	0	0	0
1   12.4950990000	 6.9184710000	   11.9257624578	0	0	0
1   12.4950990000	 6.9184710000	    9.0853314578	0	0	0
1   13.3253790000	 7.8399980000	    9.7956044578	0	0	0
1   13.3253790000	 7.8399980000	   11.2151064578	0	0	0
1   13.8298630000	 8.9733970000	   11.9257624578	0	0	0
1   13.8298630000	 8.9733970000	    9.0853314578	0	0	0
1   13.9596890000	10.2074960000	    9.7956044578	0	0	0
1   13.9596890000	10.2074960000	   11.2151064578	0	0	0
1   13.7016800000	11.4210060000	   11.9257624578	0	0	0
1   13.7016800000	11.4210060000	    9.0853314578	0	0	0
1   13.0815510000	12.4950180000	   14.0556046867	0	0	0
1   13.0815510000	12.4950180000	   15.4751066867	0	0	0
1   12.1600000000	13.3253430000	   16.1857626867	0	0	0
1   12.1600000000	13.3253430000	   13.3453316867	0	0	0
1   11.0264910000	13.8298940000	   14.0556046867	0	0	0
1   11.0264910000	13.8298940000	   15.4751066867	0	0	0
1    9.7925170000	13.9597250000	   16.1857626867	0	0	0
1    9.7925170000	13.9597250000	   13.3453316867	0	0	0
1    8.5790550000	13.7017400000	   14.0556046867	0	0	0
1    8.5790550000	13.7017400000	   15.4751066867	0	0	0
1    7.5049010000	13.0815290000	   16.1857626867	0	0	0
1    7.5049010000	13.0815290000	   13.3453316867	0	0	0
1    6.6746210000	12.1600020000	   14.0556046867	0	0	0
1    6.6746210000	12.1600020000	   15.4751066867	0	0	0
1    6.1701370000	11.0266030000	   16.1857626867	0	0	0
1    6.1701370000	11.0266030000	   13.3453316867	0	0	0
1    6.0403110000	 9.7925040000	   14.0556046867	0	0	0
1    6.0403110000	 9.7925040000	   15.4751066867	0	0	0
1    6.2983200000	 8.5789940000	   16.1857626867	0	0	0
1    6.2983200000	 8.5789940000	   13.3453316867	0	0	0
1    6.9184490000	 7.5049820000	   14.0556046867	0	0	0
1    6.9184490000	 7.5049820000	   15.4751066867	0	0	0
1    7.8400000000	 6.6746570000	   16.1857626867	0	0	0
1    7.8400000000	 6.6746570000	   13.3453316867	0	0	0
1    8.9735090000	 6.1701060000	   14.0556046867	0	0	0
1    8.9735090000	 6.1701060000	   15.4751066867	0	0	0
1   10.2074830000	 6.0402750000	   16.1857626867	0	0	0
1   10.2074830000	 6.0402750000	   13.3453316867	0	0	0
1   11.4209450000	 6.2982600000	   14.0556046867	0	0	0
1   11.4209450000	 6.2982600000	   15.4751066867	0	0	0
1   12.4950990000	 6.9184710000	   16.1857626867	0	0	0
1   12.4950990000	 6.9184710000	   13.3453316867	0	0	0
1   13.3253790000	 7.8399980000	   14.0556046867	0	0	0
1   13.3253790000	 7.8399980000	   15.4751066867	0	0	0
1   13.8298630000	 8.9733970000	   16.1857626867	0	0	0
1   13.8298630000	 8.9733970000	   13.3453316867	0	0	0
1   13.9596890000	10.2074960000	   14.0556046867	0	0	0
1   13.9596890000	10.2074960000	   15.4751066867	0	0	0
1   13.7016800000	11.4210060000	   16.1857626867	0	0	0
1   13.7016800000	11.4210060000	   13.3453316867	0	0	0
1   13.0815510000	12.4950180000	   18.3156049156	0	0	0
1   13.0815510000	12.4950180000	   19.7351069156	0	0	0
1   12.1600000000	13.3253430000	   20.4457629156	0	0	0
1   12.1600000000	13.3253430000	   17.6053319156	0	0	0
1   11.0264910000	13.8298940000	   18.3156049156	0	0	0
1   11.0264910000	13.8298940000	   19.7351069156	0	0	0
1    9.7925170000	13.9597250000	   20.4457629156	0	0	0
1    9.7925170000	13.9597250000	   17.6053319156	0	0	0
1    8.5790550000	13.7017400000	   18.3156049156	0	0	0
1    8.5790550000	13.7017400000	   19.7351069156	0	0	0
1    7.5049010000	13.0815290000	   20.4457629156	0	0	0
1    7.5049010000	13.0815290000	   17.6053319156	0	0	0
1    6.6746210000	12.1600020000	   18.3156049156	0	0	0
1    6.6746210000	12.1600020000	   19.7351069156	0	0	0
1    6.1701370000	11.0266030000	   20.4457629156	0	0	0
1    6.1701370000	11.0266030000	   17.6053319156	0	0	0
1    6.0403110000	 9.7925040000	   18.3156049156	0	0	0
1    6.0403110000	 9.7925040000	   19.7351069156	0	0	0
1    6.2983200000	 8.5789940000	   20.4457629156	0	0	0
1    6.2983200000	 8.5789940000	   17.6053319156	0	0	0
1    6.9184490000	 7.5049820000	   18.3156049156	0	0	0
1    6.9184490000	 7.5049820000	   19.7351069156	0	0	0
1    7.8400000000	 6.6746570000	   20.4457629156	0	0	0
1    7.8400000000	 6.6746570000	   17.6053319156	0	0	0
1    8.9735090000	 6.1701060000	   18.3156049156	0	0	0
1    8.9735090000	 6.1701060000	   19.7351069156	0	0	0
1   10.2074830000	 6.0402750000	   20.4457629156	0	0	0
1   10.2074830000	 6.0402750000	   17.6053319156	0	0	0
1   11.4209450000	 6.2982600000	   18.3156049156	0	0	0
1   11.4209450000	 6.2982600000	   19.7351069156	0	0	0
1   12.4950990000	 6.9184710000	   20.4457629156	0	0	0
1   12.4950990000	 6.9184710000	   17.6053319156	0	0	0
1   13.3253790000	 7.8399980000	   18.3156049156	0	0	0
1   13.3253790000	 7.8399980000	   19.7351069156	0	0	0
1   13.8298630000	 8.9733970000	   20.4457629156	0	0	0
1   13.8298630000	 8.9733970000	   17.6053319156	0	0	0
1   13.9596890000	10.2074960000	   18.3156049156	0	0	0
1   13.9596890000	10.2074960000	   19.7351069156	0	0	0
1   13.7016800000	11.4210060000	   20.4457629156	0	0	0
1   13.7016800000	11.4210060000	   17.6053319156	0	0	0
1   13.0815510000	12.4950180000	   22.5756051445	0	0	0
1   13.0815510000	12.4950180000	   23.9951071445	0	0	0
1   12.1600000000	13.3253430000	   24.7057631445	0	0	0
1   12.1600000000	13.3253430000	   21.8653321445	0	0	0
1   11.0264910000	13.8298940000	   22.5756051445	0	0	0
1   11.0264910000	13.8298940000	   23.9951071445	0	0	0
1    9.7925170000	13.9597250000	   24.7057631445	0	0	0
1    9.7925170000	13.9597250000	   21.8653321445	0	0	0
1    8.5790550000	13.7017400000	   22.5756051445	0	0	0
1    8.5790550000	13.7017400000	   23.9951071445	0	0	0
1    7.5049010000	13.0815290000	   24.7057631445	0	0	0
1    7.5049010000	13.0815290000	   21.8653321445	0	0	0
1    6.6746210000	12.1600020000	   22.5756051445	0	0	0
1    6.6746210000	12.1600020000	   23.9951071445	0	0	0
1    6.1701370000	11.0266030000	   24.7057631445	0	0	0
1    6.1701370000	11.0266030000	   21.8653321445	0	0	0
1    6.0403110000	 9.7925040000	   22.5756051445	0	0	0
1    6.0403110000	 9.7925040000	   23.9951071445	0	0	0
1    6.2983200000	 8.5789940000	   24.7057631445	0	0	0
1    6.2983200000	 8.5789940000	   21.8653321445	0	0	0
1    6.9184490000	 7.5049820000	   22.5756051445	0	0	0
1    6.9184490000	 7.5049820000	   23.9951071445	0	0	0
1    7.8400000000	 6.6746570000	   24.7057631445	0	0	0
1    7.8400000000	 6.6746570000	   21.8653321445	0	0	0
1    8.9735090000	 6.1701060000	   22.5756051445	0	0	0
1    8.9735090000	 6.1701060000	   23.9951071445	0	0	0
1   10.2074830000	 6.0402750000	   24.7057631445	0	0	0
1   10.2074830000	 6.0402750000	   21.8653321445	0	0	0
1   11.4209450000	 6.2982600000	   22.5756051445	0	0	0
1   11.4209450000	 6.2982600000	   23.9951071445	0	0	0
1   12.4950990000	 6.9184710000	   24.7057631445	0	0	0
1   12.4950990000	 6.9184710000	   21.8653321445	0	0	0
1   13.3253790000	 7.8399980000	   22.5756051445	0	0	0
1   13.3253790000	 7.8399980000	   23.9951071445	0	0	0
1   13.8298630000	 8.9733970000	   24.7057631445	0	0	0
1   13.8298630000	 8.9733970000	   21.8653321445	0	0	0
1   13.9596890000	10.2074960000	   22.5756051445	0	0	0
1   13.9596890000	10.2074960000	   23.9951071445	0	0	0
1   13.7016800000	11.4210060000	   24.7057631445	0	0	0
1   13.7016800000	11.4210060000	   21.8653321445	0	0	0
1   13.0815510000	12.4950180000	   26.8356053734	0	0	0
1   13.0815510000	12.4950180000	   28.2551073734	0	0	0
1   12.1600000000	13.3253430000	   28.9657633734	0	0	0
1   12.1600000000	13.3253430000	   26.1253323734	0	0	0
1   11.0264910000	13.8298940000	   26.8356053734	0	0	0
1   11.0264910000	13.8298940000	   28.2551073734	0	0	0
1    9.7925170000	13.9597250000	   28.9657633734	0	0	0
1    9.7925170000	13.9597250000	   26.1253323734	0	0	0
1    8.5790550000	13.7017400000	   26.8356053734	0	0	0
1    8.5790550000	13.7017400000	   28.2551073734	0	0	0
1    7.5049010000	13.0815290000	   28.9657633734	0	0	0
1    7.5049010000	13.0815290000	   26.1253323734	0	0	0
1    6.6746210000	12.1600020000	   26.8356053734	0	0	0
1    6.6746210000	12.1600020000	   28.2551073734	0	0	0
1    6.1701370000	11.0266030000	   28.9657633734	0	0	0
1    6.1701370000	11.0266030000	   26.1253323734	0	0	0
1    6.0403110000	 9.7925040000	   26.8356053734	0	0	0
1    6.0403110000	 9.7925040000	   28.2551073734	0	0	0
1    6.2983200000	 8.5789940000	   28.9657633734	0	0	0
1    6.2983200000	 8.5789940000	   26.1253323734	0	0	0
1    6.9184490000	 7.5049820000	   26.8356053734	0	0	0
1    6.9184490000	 7.5049820000	   28.2551073734	0	0	0
1    7.8400000000	 6.6746570000	   28.9657633734	0	0	0
1    7.8400000000	 6.6746570000	   26.1253323734	0	0	0
1    8.9735090000	 6.1701060000	   26.8356053734	0	0	0
1    8.9735090000	 6.1701060000	   28.2551073734	0	0	0
1   10.2074830000	 6.0402750000	   28.9657633734	0	0	0
1   10.2074830000	 6.0402750000	   26.1253323734	0	0	0
1   11.4209450000	 6.2982600000	   26.8356053734	0	0	0
1   11.4209450000	 6.2982600000	   28.2551073734	0	0	0
1   12.4950990000	 6.9184710000	   28.9657633734	0	0	0
1   12.4950990000	 6.9184710000	   26.1253323734	0	0	0
1   13.3253790000	 7.8399980000	   26.8356053734	0	0	0
1   13.3253790000	 7.8399980000	   28.2551073734	0	0	0
1   13.8298630000	 8.9733970000	   28.9657633734	0	0	0
1   13.8298630000	 8.9733970000	   26.1253323734	0	0	0
1   13.9596890000	10.2074960000	   26.8356053734	0	0	0
1   13.9596890000	10.2074960000	   28.2551073734	0	0	0
1   13.7016800000	11.4210060000	   28.9657633734	0	0	0
1   13.7016800000	11.4210060000	   26.1253323734	0	0	0
1   13.0815510000	12.4950180000	   31.0956056023	0	0	0
1   13.0815510000	12.4950180000	   32.5151076023	0	0	0
1   12.1600000000	13.3253430000	   33.2257636023	0	0	0
1   12.1600000000	13.3253430000	   30.3853326023	0	0	0
1   11.0264910000	13.8298940000	   31.0956056023	0	0	0
1   11.0264910000	13.8298940000	   32.5151076023	0	0	0
1    9.7925170000	13.9597250000	   33.2257636023	0	0	0
1    9.7925170000	13.9597250000	   30.3853326023	0	0	0
1    8.5790550000	13.7017400000	   31.0956056023	0	0	0
1    8.5790550000	13.7017400000	   32.5151076023	0	0	0
1    7.5049010000	13.0815290000	   33.2257636023	0	0	0
1    7.5049010000	13.0815290000	   30.3853326023	0	0	0
1    6.6746210000	12.1600020000	   31.0956056023	0	0	0
1    6.6746210000	12.1600020000	   32.5151076023	0	0	0
1    6.1701370000	11.0266030000	   33.2257636023	0	0	0
1    6.1701370000	11.0266030000	   30.3853326023	0	0	0
1    6.0403110000	 9.7925040000	   31.0956056023	0	0	0
1    6.0403110000	 9.7925040000	   32.5151076023	0	0	0
1    6.2983200000	 8.5789940000	   33.2257636023	0	0	0
1    6.2983200000	 8.5789940000	   30.3853326023	0	0	0
1    6.9184490000	 7.5049820000	   31.0956056023	0	0	0
1    6.9184490000	 7.5049820000	   32.5151076023	0	0	0
1    7.8400000000	 6.6746570000	   33.2257636023	0	0	0
1    7.8400000000	 6.6746570000	   30.3853326023	0	0	0
1    8.9735090000	 6.1701060000	   31.0956056023	0	0	0
1    8.9735090000	 6.1701060000	   32.5151076023	0	0	0
1   10.2074830000	 6.0402750000	   33.2257636023	0	0	0
1   10.2074830000	 6.0402750000	   30.3853326023	0	0	0
1   11.4209450000	 6.2982600000	   31.0956056023	0	0	0
1   11.4209450000	 6.2982600000	   32.5151076023	0	0	0
1   12.4950990000	 6.9184710000	   33.2257636023	0	0	0
1   12.4950990000	 6.9184710000	   30.3853326023	0	0	0
1   13.3253790000	 7.8399980000	   31.0956056023	0	0	0
1   13.3253790000	 7.8399980000	   32.5151076023	0	0	0
1   13.8298630000	 8.9733970000	   33.2257636023	0	0	0
1   13.8298630000	 8.9733970000	   30.3853326023	0	0	0
1   13.9596890000	10.2074960000	   31.0956056023	0	0	0
1   13.9596890000	10.2074960000	   32.5151076023	0	0	0
1   13.7016800000	11.4210060000	   33.2257636023	0	0	0
1   13.7016800000	11.4210060000	   30.3853326023	0	0	0
1   13.0815510000	12.4950180000	   35.3556058312	0	0	0
1   13.0815510000	12.4950180000	   36.7751078312	0	0	0
1   12.1600000000	13.3253430000	   37.4857638312	0	0	0
1   12.1600000000	13.3253430000	   34.6453328312	0	0	0
1   11.0264910000	13.8298940000	   35.3556058312	0	0	0
1   11.0264910000	13.8298940000	   36.7751078312	0	0	0
1    9.7925170000	13.9597250000	   37.4857638312	0	0	0
1    9.7925170000	13.9597250000	   34.6453328312	0	0	0
1    8.5790550000	13.7017400000	   35.3556058312	0	0	0
1    8.5790550000	13.7017400000	   36.7751078312	0	0	0
1    7.5049010000	13.0815290000	   37.4857638312	0	0	0
1    7.5049010000	13.0815290000	   34.6453328312	0	0	0
1    6.6746210000	12.1600020000	   35.3556058312	0	0	0
1    6.6746210000	12.1600020000	   36.7751078312	0	0	0
1    6.1701370000	11.0266030000	   37.4857638312	0	0	0
1    6.1701370000	11.0266030000	   34.6453328312	0	0	0
1    6.0403110000	 9.7925040000	   35.3556058312	0	0	0
1    6.0403110000	 9.7925040000	   36.7751078312	0	0	0
1    6.2983200000	 8.5789940000	   37.4857638312	0	0	0
1    6.2983200000	 8.5789940000	   34.6453328312	0	0	0
1    6.9184490000	 7.5049820000	   35.3556058312	0	0	0
1    6.9184490000	 7.5049820000	   36.7751078312	0	0	0
1    7.8400000000	 6.6746570000	   37.4857638312	0	0	0
1    7.8400000000	 6.6746570000	   34.6453328312	0	0	0
1    8.9735090000	 6.1701060000	   35.3556058312	0	0	0
1    8.9735090000	 6.1701060000	   36.7751078312	0	0	0
1   10.2074830000	 6.0402750000	   37.4857638312	0	0	0
1   10.2074830000	 6.0402750000	   34.6453328312	0	0	0
1   11.4209450000	 6.2982600000	   35.3556058312	0	0	0
1   11.4209450000	 6.2982600000	   36.7751078312	0	0	0
1   12.4950990000	 6.9184710000	   37.4857638312	0	0	0
1   12.4950990000	 6.9184710000	   34.6453328312	0	0	0
1   13.3253790000	 7.8399980000	   35.3556058312	0	0	0
1   13.3253790000	 7.8399980000	   36.7751078312	0	0	0
1   13.8298630000	 8.9733970000	   37.4857638312	0	0	0
1   13.8298630000	 8.9733970000	   34.6453328312	0	0	0
1   13.9596890000	10.2074960000	   35.3556058312	0	0	0
1   13.9596890000	10.2074960000	   36.7751078312	0	0	0
1   13.7016800000	11.4210060000	   37.4857638312	0	0	0
1   13.7016800000	11.4210060000	   34.6453328312	0	0	0
1   13.0815510000	12.4950180000	   39.6156060601	0	0	0
1   13.0815510000	12.4950180000	   41.0351080601	0	0	0
1   12.1600000000	13.3253430000	   41.7457640601	0	0	0
1   12.1600000000	13.3253430000	   38.9053330601	0	0	0
1   11.0264910000	13.8298940000	   39.6156060601	0	0	0
1   11.0264910000	13.8298940000	   41.0351080601	0	0	0
1    9.7925170000	13.9597250000	   41.7457640601	0	0	0
1    9.7925170000	13.9597250000	   38.9053330601	0	0	0
1    8.5790550000	13.7017400000	   39.6156060601	0	0	0
1    8.5790550000	13.7017400000	   41.0351080601	0	0	0
1    7.5049010000	13.0815290000	   41.7457640601	0	0	0
1    7.5049010000	13.0815290000	   38.9053330601	0	0	0
1    6.6746210000	12.1600020000	   39.6156060601	0	0	0
1    6.6746210000	12.1600020000	   41.0351080601	0	0	0
1    6.1701370000	11.0266030000	   41.7457640601	0	0	0
1    6.1701370000	11.0266030000	   38.9053330601	0	0	0
1    6.0403110000	 9.7925040000	   39.6156060601	0	0	0
1    6.0403110000	 9.7925040000	   41.0351080601	0	0	0
1    6.2983200000	 8.5789940000	   41.7457640601	0	0	0
1    6.2983200000	 8.5789940000	   38.9053330601	0	0	0
1    6.9184490000	 7.5049820000	   39.6156060601	0	0	0
1    6.9184490000	 7.5049820000	   41.0351080601	0	0	0
1    7.8400000000	 6.6746570000	   41.7457640601	0	0	0
1    7.8400000000	 6.6746570000	   38.9053330601	0	0	0
1    8.9735090000	 6.1701060000	   39.6156060601	0	0	0
1    8.9735090000	 6.1701060000	   41.0351080601	0	0	0
1   10.2074830000	 6.0402750000	   41.7457640601	0	0	0
1   10.2074830000	 6.0402750000	   38.9053330601	0	0	0
1   11.4209450000	 6.2982600000	   39.6156060601	0	0	0
1   11.4209450000	 6.2982600000	   41.0351080601	0	0	0
1   12.4950990000	 6.9184710000	   41.7457640601	0	0	0
1   12.4950990000	 6.9184710000	   38.9053330601	0	0	0
1   13.3253790000	 7.8399980000	   39.6156060601	0	0	0
1   13.3253790000	 7.8399980000	   41.0351080601	0	0	0
1   13.8298630000	 8.9733970000	   41.7457640601	0	0	0
1   13.8298630000	 8.9733970000	   38.9053330601	0	0	0
1   13.9596890000	10.2074960000	   39.6156060601	0	0	0
1   13.9596890000	10.2074960000	   41.0351080601	0	0	0
1   13.7016800000	11.4210060000	   41.7457640601	0	0	0
1   13.7016800000	11.4210060000	   38.9053330601	0	0	0
%endblock Zmatrix
